32      2       
15      17      
0       0       0       3       2       3       4       
9       9       0       2       5       10      
6       0       7       3       7       9       16      
5       7       0       2       6       19      
9       6       0       3       8       19      24      
8       10      0       3       11      12      14      
8       0       4       1       18      
7       0       1       1       13      
10      0       6       2       11      18      
6       0       7       1       15      
4       0       7       2       17      26      
6       2       0       1       21      
6       0       2       1       28      
10      0       2       1       16      
8       0       4       1       28      
2       0       3       1       26      
5       7       0       1       20      
10      0       3       3       21      22      23      
4       0       7       1       31      
1       0       4       1       28      
2       0       6       2       25      31      
3       5       0       2       24      26      
10      2       0       1       30      
10      0       2       1       25      
4       7       0       1       30      
1       0       10      1       27      
10      0       10      1       29      
8       5       0       2       29      30      
4       0       8       1       32      
4       6       0       1       32      
10      0       6       1       32      
0       0       0       0       